%mem=2gb 
%nprocshared=8
%chk=Methyl_r_opt.chk
#p UB3LYP/6-31G* opt 

comment  

0 2 
C     -0.00000200      0.00000000      0.00002500
H      0.54116700      0.93779400     -0.00005000
H      0.54162500     -0.93753000     -0.00005000
H     -1.08278100     -0.00026400     -0.00005000

